p cnf 15 10
-1 -3 10 9 0
-5 -1 -2 -6 0
-6 -1 3 -10 0
9 7 -10 -8 0
10 -5 -2 -9 0
5 10 3 9 0
-5 1 2 -3 0
-2 3 -5 -9 0
3 9 -2 -6 0
3 -1 -8 -9 0
-4 -9 -7 1 0
-6 3 5 4 0
8 6 -1 -7 0
-7 -6 -3 -4 0
2 -7 6 3 0
